436160
46,102,1,72,103,37,69,83,52,71,60,21,93,77,2,36,45,76,5,51,4,64,22,11,7,96,25,33,67,100,104,12,30,97,95,70,6,61,35,32,62,81,48,38,80,47,89,99,34,31,20,55,39,85,16,82,105,15,19,14,3,24,54,87,68,40,84,66,53,44,98,10,0,13,8,79,75,58,65,74,18,49,41,23,101,73,56,90,9,86,57,50,17,42,27,26,43,94,59,29,92,88,28,63,91,78,46
